p cnf 233 1057
151 158 163 0
135 174 214 216 218 0
118 142 143 149 0
125 128 177 181 0
220 222 225 0
104 161 0
130 140 169 0
176 232 0
86 145 171 0
116 120 124 146 0
110 112 113 166 0
102 103 131 0
92 97 99 164 0
90 139 0
107 210 0
88 89 94 162 0
84 134 0
83 117 153 197 0
141 178 179 182 0
100 184 0
101 187 0
173 189 0
119 190 194 196 0
122 123 126 129 147 156 0
114 168 200 0
106 132 202 0
91 203 0
205 206 208 209 0
159 211 212 213 0
137 175 215 217 219 0
87 192 198 0
127 144 152 157 0
111 180 0
133 221 223 226 0
98 160 183 185 0
204 227 228 0
229 230 231 0
109 207 0
95 148 233 0
77 78 79 80 81 0
75 76 85 170 172 188 0
74 155 0
72 73 115 121 0
71 165 167 199 0
67 68 70 0
-128 -214 0
-66 -214 0
-104 -214 0
-66 -128 0
-104 -128 0
-66 -104 0
-156 -202 0
-65 -156 0
-138 -156 0
-65 -202 0
-138 -202 0
-65 -138 0
-137 -211 0
-87 -211 0
-180 -211 0
-87 -137 0
-137 -180 0
-87 -180 0
-188 -199 0
-63 -188 0
-70 -188 0
-63 -199 0
-70 -199 0
-63 -70 0
-156 -214 0
-211 -214 0
-188 -214 0
-156 -211 0
-156 -188 0
-188 -211 0
-128 -202 0
-128 -137 0
-128 -199 0
-137 -202 0
-199 -202 0
-137 -199 0
-65 -66 0
-66 -87 0
-63 -66 0
-65 -87 0
-63 -65 0
-63 -87 0
-104 -138 0
-104 -180 0
-70 -104 0
-138 -180 0
-70 -138 0
-70 -180 0
-62 -158 0
-158 -174 0
-143 -158 0
-125 -158 0
-158 -220 0
-62 -174 0
-62 -143 0
-62 -125 0
-62 -220 0
-143 -174 0
-125 -174 0
-174 -220 0
-125 -143 0
-143 -220 0
-125 -220 0
-146 -193 0
-113 -193 0
-103 -193 0
-99 -193 0
-60 -193 0
-113 -146 0
-103 -146 0
-99 -146 0
-60 -146 0
-103 -113 0
-99 -113 0
-60 -113 0
-99 -103 0
-60 -103 0
-60 -99 0
-58 -107 0
-107 -162 0
-107 -134 0
-83 -107 0
-57 -107 0
-58 -162 0
-58 -134 0
-58 -83 0
-57 -58 0
-134 -162 0
-83 -162 0
-57 -162 0
-83 -134 0
-57 -134 0
-57 -83 0
-184 -224 0
-56 -224 0
-55 -224 0
-54 -224 0
-187 -224 0
-56 -184 0
-55 -184 0
-54 -184 0
-184 -187 0
-55 -56 0
-54 -56 0
-56 -187 0
-54 -55 0
-55 -187 0
-54 -187 0
-53 -205 0
-53 -212 0
-51 -53 0
-53 -215 0
-53 -157 0
-205 -212 0
-51 -205 0
-205 -215 0
-157 -205 0
-51 -212 0
-212 -215 0
-157 -212 0
-51 -215 0
-51 -157 0
-157 -215 0
-81 -95 0
-95 -172 0
-95 -121 0
-95 -167 0
-50 -95 0
-81 -172 0
-81 -121 0
-81 -167 0
-50 -81 0
-121 -172 0
-167 -172 0
-50 -172 0
-121 -167 0
-50 -121 0
-50 -167 0
-158 -193 0
-107 -158 0
-158 -224 0
-53 -158 0
-95 -158 0
-107 -193 0
-193 -224 0
-53 -193 0
-95 -193 0
-107 -224 0
-53 -107 0
-95 -107 0
-53 -224 0
-95 -224 0
-53 -95 0
-62 -146 0
-58 -62 0
-62 -184 0
-62 -205 0
-62 -81 0
-58 -146 0
-146 -184 0
-146 -205 0
-81 -146 0
-58 -184 0
-58 -205 0
-58 -81 0
-184 -205 0
-81 -184 0
-81 -205 0
-113 -174 0
-162 -174 0
-56 -174 0
-174 -212 0
-172 -174 0
-113 -162 0
-56 -113 0
-113 -212 0
-113 -172 0
-56 -162 0
-162 -212 0
-162 -172 0
-56 -212 0
-56 -172 0
-172 -212 0
-103 -143 0
-134 -143 0
-55 -143 0
-51 -143 0
-121 -143 0
-103 -134 0
-55 -103 0
-51 -103 0
-103 -121 0
-55 -134 0
-51 -134 0
-121 -134 0
-51 -55 0
-55 -121 0
-51 -121 0
-99 -125 0
-83 -125 0
-54 -125 0
-125 -215 0
-125 -167 0
-83 -99 0
-54 -99 0
-99 -215 0
-99 -167 0
-54 -83 0
-83 -215 0
-83 -167 0
-54 -215 0
-54 -167 0
-167 -215 0
-60 -220 0
-57 -220 0
-187 -220 0
-157 -220 0
-50 -220 0
-57 -60 0
-60 -187 0
-60 -157 0
-50 -60 0
-57 -187 0
-57 -157 0
-50 -57 0
-157 -187 0
-50 -187 0
-50 -157 0
-93 -151 0
-118 -151 0
-151 -177 0
-151 -222 0
-93 -118 0
-93 -177 0
-93 -222 0
-118 -177 0
-118 -222 0
-177 -222 0
-124 -195 0
-131 -195 0
-97 -195 0
-49 -195 0
-124 -131 0
-97 -124 0
-49 -124 0
-97 -131 0
-49 -131 0
-49 -97 0
-48 -100 0
-47 -48 0
-45 -48 0
-48 -101 0
-47 -100 0
-45 -100 0
-100 -101 0
-45 -47 0
-47 -101 0
-45 -101 0
-44 -206 0
-44 -61 0
-44 -175 0
-44 -144 0
-61 -206 0
-175 -206 0
-144 -206 0
-61 -175 0
-61 -144 0
-144 -175 0
-43 -221 0
-43 -229 0
-42 -43 0
-41 -43 0
-221 -229 0
-42 -221 0
-41 -221 0
-42 -229 0
-41 -229 0
-41 -42 0
-151 -195 0
-48 -151 0
-44 -151 0
-43 -151 0
-48 -195 0
-44 -195 0
-43 -195 0
-44 -48 0
-43 -48 0
-43 -44 0
-93 -124 0
-93 -100 0
-93 -206 0
-93 -221 0
-100 -124 0
-124 -206 0
-124 -221 0
-100 -206 0
-100 -221 0
-206 -221 0
-118 -131 0
-47 -118 0
-61 -118 0
-118 -229 0
-47 -131 0
-61 -131 0
-131 -229 0
-47 -61 0
-47 -229 0
-61 -229 0
-97 -177 0
-45 -177 0
-175 -177 0
-42 -177 0
-45 -97 0
-97 -175 0
-42 -97 0
-45 -175 0
-42 -45 0
-42 -175 0
-49 -222 0
-101 -222 0
-144 -222 0
-41 -222 0
-49 -101 0
-49 -144 0
-41 -49 0
-101 -144 0
-41 -101 0
-41 -144 0
-40 -216 0
-40 -191 0
-40 -181 0
-39 -40 0
-40 -161 0
-191 -216 0
-181 -216 0
-39 -216 0
-161 -216 0
-181 -191 0
-39 -191 0
-161 -191 0
-39 -181 0
-161 -181 0
-39 -161 0
-37 -140 0
-108 -140 0
-35 -140 0
-140 -232 0
-140 -171 0
-37 -108 0
-35 -37 0
-37 -232 0
-37 -171 0
-35 -108 0
-108 -232 0
-108 -171 0
-35 -232 0
-35 -171 0
-171 -232 0
-120 -166 0
-34 -120 0
-92 -120 0
-90 -120 0
-32 -120 0
-34 -166 0
-92 -166 0
-90 -166 0
-32 -166 0
-34 -92 0
-34 -90 0
-32 -34 0
-90 -92 0
-32 -92 0
-32 -90 0
-31 -89 0
-30 -31 0
-31 -197 0
-31 -141 0
-28 -31 0
-30 -89 0
-89 -197 0
-89 -141 0
-28 -89 0
-30 -197 0
-30 -141 0
-28 -30 0
-141 -197 0
-28 -197 0
-28 -141 0
-129 -190 0
-114 -190 0
-106 -190 0
-26 -190 0
-25 -190 0
-114 -129 0
-106 -129 0
-26 -129 0
-25 -129 0
-106 -114 0
-26 -114 0
-25 -114 0
-26 -106 0
-25 -106 0
-25 -26 0
-185 -223 0
-223 -227 0
-24 -223 0
-207 -223 0
-23 -223 0
-185 -227 0
-24 -185 0
-185 -207 0
-23 -185 0
-24 -227 0
-207 -227 0
-23 -227 0
-24 -207 0
-23 -24 0
-23 -207 0
-40 -140 0
-40 -120 0
-31 -40 0
-40 -190 0
-40 -223 0
-120 -140 0
-31 -140 0
-140 -190 0
-140 -223 0
-31 -120 0
-120 -190 0
-120 -223 0
-31 -190 0
-31 -223 0
-190 -223 0
-37 -216 0
-166 -216 0
-89 -216 0
-129 -216 0
-185 -216 0
-37 -166 0
-37 -89 0
-37 -129 0
-37 -185 0
-89 -166 0
-129 -166 0
-166 -185 0
-89 -129 0
-89 -185 0
-129 -185 0
-108 -191 0
-34 -191 0
-30 -191 0
-114 -191 0
-191 -227 0
-34 -108 0
-30 -108 0
-108 -114 0
-108 -227 0
-30 -34 0
-34 -114 0
-34 -227 0
-30 -114 0
-30 -227 0
-114 -227 0
-35 -181 0
-92 -181 0
-181 -197 0
-106 -181 0
-24 -181 0
-35 -92 0
-35 -197 0
-35 -106 0
-24 -35 0
-92 -197 0
-92 -106 0
-24 -92 0
-106 -197 0
-24 -197 0
-24 -106 0
-39 -232 0
-39 -90 0
-39 -141 0
-26 -39 0
-39 -207 0
-90 -232 0
-141 -232 0
-26 -232 0
-207 -232 0
-90 -141 0
-26 -90 0
-90 -207 0
-26 -141 0
-141 -207 0
-26 -207 0
-161 -171 0
-32 -161 0
-28 -161 0
-25 -161 0
-23 -161 0
-32 -171 0
-28 -171 0
-25 -171 0
-23 -171 0
-28 -32 0
-25 -32 0
-23 -32 0
-25 -28 0
-23 -28 0
-23 -25 0
-112 -154 0
-154 -201 0
-154 -164 0
-139 -154 0
-22 -154 0
-112 -201 0
-112 -164 0
-112 -139 0
-22 -112 0
-164 -201 0
-139 -201 0
-22 -201 0
-139 -164 0
-22 -164 0
-22 -139 0
-88 -210 0
-136 -210 0
-117 -210 0
-179 -210 0
-21 -210 0
-88 -136 0
-88 -117 0
-88 -179 0
-21 -88 0
-117 -136 0
-136 -179 0
-21 -136 0
-117 -179 0
-21 -117 0
-21 -179 0
-126 -189 0
-189 -200 0
-132 -189 0
-69 -189 0
-189 -203 0
-126 -200 0
-126 -132 0
-69 -126 0
-126 -203 0
-132 -200 0
-69 -200 0
-200 -203 0
-69 -132 0
-132 -203 0
-69 -203 0
-20 -213 0
-19 -20 0
-20 -217 0
-20 -192 0
-20 -152 0
-19 -213 0
-213 -217 0
-192 -213 0
-152 -213 0
-19 -217 0
-19 -192 0
-19 -152 0
-192 -217 0
-152 -217 0
-152 -192 0
-38 -160 0
-38 -228 0
-36 -38 0
-38 -109 0
-17 -38 0
-160 -228 0
-36 -160 0
-109 -160 0
-17 -160 0
-36 -228 0
-109 -228 0
-17 -228 0
-36 -109 0
-17 -36 0
-17 -109 0
-170 -233 0
-74 -233 0
-165 -233 0
-33 -233 0
-16 -233 0
-74 -170 0
-165 -170 0
-33 -170 0
-16 -170 0
-74 -165 0
-33 -74 0
-16 -74 0
-33 -165 0
-16 -165 0
-16 -33 0
-154 -210 0
-154 -189 0
-20 -154 0
-38 -154 0
-154 -233 0
-189 -210 0
-20 -210 0
-38 -210 0
-210 -233 0
-20 -189 0
-38 -189 0
-189 -233 0
-20 -38 0
-20 -233 0
-38 -233 0
-88 -112 0
-112 -126 0
-112 -213 0
-112 -160 0
-112 -170 0
-88 -126 0
-88 -213 0
-88 -160 0
-88 -170 0
-126 -213 0
-126 -160 0
-126 -170 0
-160 -213 0
-170 -213 0
-160 -170 0
-136 -201 0
-200 -201 0
-19 -201 0
-201 -228 0
-74 -201 0
-136 -200 0
-19 -136 0
-136 -228 0
-74 -136 0
-19 -200 0
-200 -228 0
-74 -200 0
-19 -228 0
-19 -74 0
-74 -228 0
-117 -164 0
-132 -164 0
-164 -217 0
-36 -164 0
-164 -165 0
-117 -132 0
-117 -217 0
-36 -117 0
-117 -165 0
-132 -217 0
-36 -132 0
-132 -165 0
-36 -217 0
-165 -217 0
-36 -165 0
-139 -179 0
-69 -139 0
-139 -192 0
-109 -139 0
-33 -139 0
-69 -179 0
-179 -192 0
-109 -179 0
-33 -179 0
-69 -192 0
-69 -109 0
-33 -69 0
-109 -192 0
-33 -192 0
-33 -109 0
-21 -22 0
-22 -203 0
-22 -152 0
-17 -22 0
-16 -22 0
-21 -203 0
-21 -152 0
-17 -21 0
-16 -21 0
-152 -203 0
-17 -203 0
-16 -203 0
-17 -152 0
-16 -152 0
-16 -17 0
-15 -163 0
-135 -163 0
-82 -163 0
-149 -163 0
-163 -225 0
-15 -135 0
-15 -82 0
-15 -149 0
-15 -225 0
-82 -135 0
-135 -149 0
-135 -225 0
-82 -149 0
-82 -225 0
-149 -225 0
-14 -116 0
-14 -110 0
-13 -14 0
-14 -102 0
-14 -52 0
-110 -116 0
-13 -116 0
-102 -116 0
-52 -116 0
-13 -110 0
-102 -110 0
-52 -110 0
-13 -102 0
-13 -52 0
-52 -102 0
-119 -173 0
-122 -173 0
-168 -173 0
-12 -173 0
-91 -173 0
-119 -122 0
-119 -168 0
-12 -119 0
-91 -119 0
-122 -168 0
-12 -122 0
-91 -122 0
-12 -168 0
-91 -168 0
-12 -91 0
-11 -208 0
-11 -159 0
-10 -11 0
-9 -11 0
-11 -127 0
-159 -208 0
-10 -208 0
-9 -208 0
-127 -208 0
-10 -159 0
-9 -159 0
-127 -159 0
-9 -10 0
-10 -127 0
-9 -127 0
-8 -133 0
-8 -98 0
-8 -204 0
-8 -230 0
-7 -8 0
-98 -133 0
-133 -204 0
-133 -230 0
-7 -133 0
-98 -204 0
-98 -230 0
-7 -98 0
-204 -230 0
-7 -204 0
-7 -230 0
-80 -148 0
-76 -148 0
-148 -155 0
-73 -148 0
-64 -148 0
-76 -80 0
-80 -155 0
-73 -80 0
-64 -80 0
-76 -155 0
-73 -76 0
-64 -76 0
-73 -155 0
-64 -155 0
-64 -73 0
-14 -163 0
-163 -173 0
-11 -163 0
-8 -163 0
-148 -163 0
-14 -173 0
-11 -14 0
-8 -14 0
-14 -148 0
-11 -173 0
-8 -173 0
-148 -173 0
-8 -11 0
-11 -148 0
-8 -148 0
-15 -116 0
-15 -119 0
-15 -208 0
-15 -133 0
-15 -80 0
-116 -119 0
-116 -208 0
-116 -133 0
-80 -116 0
-119 -208 0
-119 -133 0
-80 -119 0
-133 -208 0
-80 -208 0
-80 -133 0
-110 -135 0
-122 -135 0
-135 -159 0
-98 -135 0
-76 -135 0
-110 -122 0
-110 -159 0
-98 -110 0
-76 -110 0
-122 -159 0
-98 -122 0
-76 -122 0
-98 -159 0
-76 -159 0
-76 -98 0
-13 -82 0
-82 -168 0
-10 -82 0
-82 -204 0
-82 -155 0
-13 -168 0
-10 -13 0
-13 -204 0
-13 -155 0
-10 -168 0
-168 -204 0
-155 -168 0
-10 -204 0
-10 -155 0
-155 -204 0
-102 -149 0
-12 -149 0
-9 -149 0
-149 -230 0
-73 -149 0
-12 -102 0
-9 -102 0
-102 -230 0
-73 -102 0
-9 -12 0
-12 -230 0
-12 -73 0
-9 -230 0
-9 -73 0
-73 -230 0
-52 -225 0
-91 -225 0
-127 -225 0
-7 -225 0
-64 -225 0
-52 -91 0
-52 -127 0
-7 -52 0
-52 -64 0
-91 -127 0
-7 -91 0
-64 -91 0
-7 -127 0
-64 -127 0
-7 -64 0
-46 -130 0
-6 -130 0
-86 -130 0
-6 -46 0
-46 -86 0
-6 -86 0
-147 -194 0
-5 -194 0
-59 -194 0
-5 -147 0
-59 -147 0
-5 -59 0
-183 -226 0
-226 -231 0
-186 -226 0
-183 -231 0
-183 -186 0
-186 -231 0
-75 -79 0
-79 -115 0
-68 -79 0
-75 -115 0
-68 -75 0
-68 -115 0
-130 -194 0
-130 -226 0
-79 -130 0
-194 -226 0
-79 -194 0
-79 -226 0
-46 -147 0
-46 -183 0
-46 -75 0
-147 -183 0
-75 -147 0
-75 -183 0
-5 -6 0
-6 -231 0
-6 -115 0
-5 -231 0
-5 -115 0
-115 -231 0
-59 -86 0
-86 -186 0
-68 -86 0
-59 -186 0
-59 -68 0
-68 -186 0
-29 -218 0
-29 -142 0
-27 -29 0
-142 -218 0
-27 -218 0
-27 -142 0
-94 -150 0
-84 -150 0
-150 -178 0
-84 -94 0
-94 -178 0
-84 -178 0
-123 -196 0
-4 -196 0
-96 -196 0
-4 -123 0
-96 -123 0
-4 -96 0
-78 -85 0
-72 -78 0
-3 -78 0
-72 -85 0
-3 -85 0
-3 -72 0
-29 -150 0
-29 -196 0
-29 -78 0
-150 -196 0
-78 -150 0
-78 -196 0
-94 -218 0
-123 -218 0
-85 -218 0
-94 -123 0
-85 -94 0
-85 -123 0
-84 -142 0
-4 -142 0
-72 -142 0
-4 -84 0
-72 -84 0
-4 -72 0
-27 -178 0
-27 -96 0
-3 -27 0
-96 -178 0
-3 -178 0
-3 -96 0
-2 -169 0
-169 -176 0
-145 -169 0
-2 -176 0
-2 -145 0
-145 -176 0
-18 -153 0
-18 -182 0
-1 -18 0
-153 -182 0
-1 -153 0
-1 -182 0
-209 -219 0
-198 -209 0
-111 -209 0
-198 -219 0
-111 -219 0
-111 -198 0
-71 -77 0
-77 -105 0
-67 -77 0
-71 -105 0
-67 -71 0
-67 -105 0
-18 -169 0
-169 -209 0
-77 -169 0
-18 -209 0
-18 -77 0
-77 -209 0
-2 -153 0
-2 -219 0
-2 -71 0
-153 -219 0
-71 -153 0
-71 -219 0
-176 -182 0
-176 -198 0
-105 -176 0
-182 -198 0
-105 -182 0
-105 -198 0
-1 -145 0
-111 -145 0
-67 -145 0
-1 -111 0
-1 -67 0
-67 -111 0
